NAME (null)_copy
ROWS
 N  OBJ
 E  2       
 E  3       
 E  4       
 E  5       
 E  6       
 E  7       
 E  8       
 E  9       
 E  10      
 E  11      
 E  12      
 E  13      
 E  14      
 E  15      
 E  16      
 E  17      
 E  18      
 E  19      
 E  20      
 E  21      
 E  22      
 E  23      
 E  24      
 E  25      
 E  28      
 E  29      
 E  30      
 E  31      
 E  34      
 E  35      
 E  36      
 E  37      
 E  40      
 E  41      
 E  42      
 E  43      
 E  46      
 E  47      
 E  48      
 E  49      
 E  50      
 E  51      
 E  52      
 E  53      
 E  54      
 E  55      
 E  56      
 E  57      
 E  58      
 E  59      
 E  60      
 E  61      
 E  62      
 E  63      
 E  64      
 E  65      
 E  66      
 E  67      
 E  68      
 E  69      
 E  70      
 E  71      
 E  72      
 E  73      
 E  74      
 E  75      
 E  76      
 E  77      
 E  78      
 E  79      
 L  80      
 L  81      
 L  82      
 L  83      
 L  84      
 L  85      
 L  86      
 L  87      
 L  88      
 L  89      
 L  90      
 L  91      
 L  92      
 L  93      
 L  94      
 L  95      
 L  98      
 L  99      
 L  100     
 L  101     
 L  104     
 L  105     
 L  106     
 L  107     
 L  110     
 L  111     
 L  112     
 L  113     
 L  116     
 L  117     
 L  118     
 L  119     
 L  121     
 L  122     
 L  123     
 L  124     
 L  125     
 L  127     
 L  128     
 L  129     
 L  130     
 L  131     
 L  133     
 L  134     
 L  135     
 L  136     
 L  137     
COLUMNS
    X1111     OBJ       -0.00135
    X1111     2         1
    X1111     56        1
    X1121     OBJ       -3.5000000000000005e-04
    X1121     2         1
    X1121     62        1
    X1131     OBJ       -3.5000000000000005e-04
    X1131     2         1
    X1131     68        1
    SB11      OBJ       0.001
    SB11      2         1
    X2111     OBJ       1.0000000000000005e-04
    X2111     3         1
    X2111     56        1
    X2211     OBJ       -0.0009
    X2211     3         1
    X2211     57        1
    X2121     OBJ       0.0011
    X2121     3         1
    X2121     62        1
    X2221     OBJ       1.0000000000000005e-04
    X2221     3         1
    X2221     63        1
    X2131     OBJ       0.0011
    X2131     3         1
    X2131     68        1
    X2231     OBJ       1.0000000000000005e-04
    X2231     3         1
    X2231     69        1
    SB12      OBJ       0.001
    SB12      3         1
    X3211     OBJ       0.00034
    X3211     4         1
    X3211     57        1
    X3311     OBJ       -0.00066
    X3311     4         1
    X3311     58        1
    X3221     OBJ       0.00134
    X3221     4         1
    X3221     63        1
    X3321     OBJ       0.00034
    X3321     4         1
    X3321     64        1
    X3231     OBJ       0.00134
    X3231     4         1
    X3231     69        1
    X3331     OBJ       0.00034
    X3331     4         1
    X3331     70        1
    SB13      OBJ       0.001
    SB13      4         1
    X4311     OBJ       5.2000000000000006e-04
    X4311     5         1
    X4311     58        1
    X4411     OBJ       -4.7999999999999996e-04
    X4411     5         1
    X4411     59        1
    X4321     OBJ       0.00152
    X4321     5         1
    X4321     64        1
    X4421     OBJ       5.2000000000000006e-04
    X4421     5         1
    X4421     65        1
    X4331     OBJ       0.00152
    X4331     5         1
    X4331     70        1
    X4431     OBJ       5.2000000000000006e-04
    X4431     5         1
    X4431     71        1
    SB14      OBJ       0.001
    SB14      5         1
    X5411     OBJ       0.00064
    X5411     6         1
    X5411     59        1
    X5511     OBJ       -3.5999999999999997e-04
    X5511     6         1
    X5511     60        1
    X5421     OBJ       0.00164
    X5421     6         1
    X5421     65        1
    X5521     OBJ       0.00064
    X5521     6         1
    X5521     66        1
    X5431     OBJ       0.00164
    X5431     6         1
    X5431     71        1
    X5531     OBJ       0.00064
    X5531     6         1
    X5531     72        1
    SB15      OBJ       0.001
    SB15      6         1
    X6511     OBJ       7.0000000000000010e-04
    X6511     7         1
    X6511     60        1
    X6611     OBJ       -0.0003
    X6611     7         1
    X6611     61        1
    X6521     OBJ       1.7000000000000001e-03
    X6521     7         1
    X6521     66        1
    X6621     OBJ       7.0000000000000010e-04
    X6621     7         1
    X6621     67        1
    X6531     OBJ       1.7000000000000001e-03
    X6531     7         1
    X6531     72        1
    X6631     OBJ       7.0000000000000010e-04
    X6631     7         1
    X6631     73        1
    SB16      OBJ       0.001
    SB16      7         1
    X1112     OBJ       -0.00135
    X1112     8         1
    X1112     56        1
    X1122     OBJ       -0.00135
    X1122     8         1
    X1122     62        1
    X1132     OBJ       -3.5000000000000005e-04
    X1132     8         1
    X1132     68        1
    X1142     OBJ       -3.5000000000000005e-04
    X1142     8         1
    X1142     74        1
    SB21      OBJ       0.001
    SB21      8         1
    X2112     OBJ       1.0000000000000005e-04
    X2112     9         1
    X2112     56        1
    X2112     121       1
    X2212     OBJ       -0.0009
    X2212     9         1
    X2212     57        1
    X2212     121       1
    X2122     OBJ       1.0000000000000005e-04
    X2122     9         1
    X2122     62        1
    X2222     OBJ       -0.0009
    X2222     9         1
    X2222     63        1
    X2132     OBJ       0.0011
    X2132     9         1
    X2132     68        1
    X2232     OBJ       1.0000000000000005e-04
    X2232     9         1
    X2232     69        1
    X2142     OBJ       0.0011
    X2142     9         1
    X2142     74        1
    X2242     OBJ       1.0000000000000005e-04
    X2242     9         1
    X2242     75        1
    SB22      OBJ       0.001
    SB22      9         1
    X3212     OBJ       0.00034
    X3212     10        1
    X3212     57        1
    X3212     122       1
    X3312     OBJ       -0.00066
    X3312     10        1
    X3312     58        1
    X3312     122       1
    X3222     OBJ       0.00034
    X3222     10        1
    X3222     63        1
    X3322     OBJ       -0.00066
    X3322     10        1
    X3322     64        1
    X3232     OBJ       0.00134
    X3232     10        1
    X3232     69        1
    X3332     OBJ       0.00034
    X3332     10        1
    X3332     70        1
    X3242     OBJ       0.00134
    X3242     10        1
    X3242     75        1
    X3342     OBJ       0.00034
    X3342     10        1
    X3342     76        1
    SB23      OBJ       0.001
    SB23      10        1
    X4312     OBJ       5.2000000000000006e-04
    X4312     11        1
    X4312     58        1
    X4312     123       1
    X4412     OBJ       -4.7999999999999996e-04
    X4412     11        1
    X4412     59        1
    X4412     123       1
    X4322     OBJ       5.2000000000000006e-04
    X4322     11        1
    X4322     64        1
    X4422     OBJ       -4.7999999999999996e-04
    X4422     11        1
    X4422     65        1
    X4332     OBJ       0.00152
    X4332     11        1
    X4332     70        1
    X4432     OBJ       5.2000000000000006e-04
    X4432     11        1
    X4432     71        1
    X4342     OBJ       0.00152
    X4342     11        1
    X4342     76        1
    X4442     OBJ       5.2000000000000006e-04
    X4442     11        1
    X4442     77        1
    SB24      OBJ       0.001
    SB24      11        1
    X5412     OBJ       0.00064
    X5412     12        1
    X5412     59        1
    X5412     124       1
    X5512     OBJ       -3.5999999999999997e-04
    X5512     12        1
    X5512     60        1
    X5512     124       1
    X5422     OBJ       0.00064
    X5422     12        1
    X5422     65        1
    X5522     OBJ       -3.5999999999999997e-04
    X5522     12        1
    X5522     66        1
    X5432     OBJ       0.00164
    X5432     12        1
    X5432     71        1
    X5532     OBJ       0.00064
    X5532     12        1
    X5532     72        1
    X5442     OBJ       0.00164
    X5442     12        1
    X5442     77        1
    X5542     OBJ       0.00064
    X5542     12        1
    X5542     78        1
    SB25      OBJ       0.001
    SB25      12        1
    X6512     OBJ       7.0000000000000010e-04
    X6512     13        1
    X6512     60        1
    X6512     125       1
    X6612     OBJ       -0.0003
    X6612     13        1
    X6612     61        1
    X6612     125       1
    X6522     OBJ       7.0000000000000010e-04
    X6522     13        1
    X6522     66        1
    X6622     OBJ       -0.0003
    X6622     13        1
    X6622     67        1
    X6532     OBJ       1.7000000000000001e-03
    X6532     13        1
    X6532     72        1
    X6632     OBJ       7.0000000000000010e-04
    X6632     13        1
    X6632     73        1
    X6542     OBJ       1.7000000000000001e-03
    X6542     13        1
    X6542     78        1
    X6642     OBJ       7.0000000000000010e-04
    X6642     13        1
    X6642     79        1
    SB26      OBJ       0.001
    SB26      13        1
    X1123     OBJ       -0.00135
    X1123     14        1
    X1123     62        1
    X1133     OBJ       -0.00135
    X1133     14        1
    X1133     68        1
    X1143     OBJ       -3.5000000000000005e-04
    X1143     14        1
    X1143     74        1
    SB31      OBJ       0.001
    SB31      14        1
    X2123     OBJ       1.0000000000000005e-04
    X2123     15        1
    X2123     62        1
    X2123     127       1
    X2223     OBJ       -0.0009
    X2223     15        1
    X2223     63        1
    X2223     127       1
    X2133     OBJ       1.0000000000000005e-04
    X2133     15        1
    X2133     68        1
    X2233     OBJ       -0.0009
    X2233     15        1
    X2233     69        1
    X2143     OBJ       0.0011
    X2143     15        1
    X2143     74        1
    X2243     OBJ       1.0000000000000005e-04
    X2243     15        1
    X2243     75        1
    SB32      OBJ       0.001
    SB32      15        1
    X3223     OBJ       0.00034
    X3223     16        1
    X3223     63        1
    X3223     128       1
    X3323     OBJ       -0.00066
    X3323     16        1
    X3323     64        1
    X3323     128       1
    X3233     OBJ       0.00034
    X3233     16        1
    X3233     69        1
    X3333     OBJ       -0.00066
    X3333     16        1
    X3333     70        1
    X3243     OBJ       0.00134
    X3243     16        1
    X3243     75        1
    X3343     OBJ       0.00034
    X3343     16        1
    X3343     76        1
    SB33      OBJ       0.001
    SB33      16        1
    X4323     OBJ       5.2000000000000006e-04
    X4323     17        1
    X4323     64        1
    X4323     129       1
    X4423     OBJ       -4.7999999999999996e-04
    X4423     17        1
    X4423     65        1
    X4423     129       1
    X4333     OBJ       5.2000000000000006e-04
    X4333     17        1
    X4333     70        1
    X4433     OBJ       -4.7999999999999996e-04
    X4433     17        1
    X4433     71        1
    X4343     OBJ       0.00152
    X4343     17        1
    X4343     76        1
    X4443     OBJ       5.2000000000000006e-04
    X4443     17        1
    X4443     77        1
    SB34      OBJ       0.001
    SB34      17        1
    X5423     OBJ       0.00064
    X5423     18        1
    X5423     65        1
    X5423     130       1
    X5523     OBJ       -3.5999999999999997e-04
    X5523     18        1
    X5523     66        1
    X5523     130       1
    X5433     OBJ       0.00064
    X5433     18        1
    X5433     71        1
    X5533     OBJ       -3.5999999999999997e-04
    X5533     18        1
    X5533     72        1
    X5443     OBJ       0.00164
    X5443     18        1
    X5443     77        1
    X5543     OBJ       0.00064
    X5543     18        1
    X5543     78        1
    SB35      OBJ       0.001
    SB35      18        1
    X6523     OBJ       7.0000000000000010e-04
    X6523     19        1
    X6523     66        1
    X6523     131       1
    X6623     OBJ       -0.0003
    X6623     19        1
    X6623     67        1
    X6623     131       1
    X6533     OBJ       7.0000000000000010e-04
    X6533     19        1
    X6533     72        1
    X6633     OBJ       -0.0003
    X6633     19        1
    X6633     73        1
    X6543     OBJ       1.7000000000000001e-03
    X6543     19        1
    X6543     78        1
    X6643     OBJ       7.0000000000000010e-04
    X6643     19        1
    X6643     79        1
    SB36      OBJ       0.001
    SB36      19        1
    X1134     OBJ       -0.00135
    X1134     20        1
    X1134     68        1
    X1144     OBJ       -0.00135
    X1144     20        1
    X1144     74        1
    SB41      OBJ       0.001
    SB41      20        1
    X2134     OBJ       1.0000000000000005e-04
    X2134     21        1
    X2134     68        1
    X2134     133       1
    X2234     OBJ       -0.0009
    X2234     21        1
    X2234     69        1
    X2234     133       1
    X2144     OBJ       1.0000000000000005e-04
    X2144     21        1
    X2144     74        1
    X2244     OBJ       -0.0009
    X2244     21        1
    X2244     75        1
    SB42      OBJ       0.001
    SB42      21        1
    X3234     OBJ       0.00034
    X3234     22        1
    X3234     69        1
    X3234     134       1
    X3334     OBJ       -0.00066
    X3334     22        1
    X3334     70        1
    X3334     134       1
    X3244     OBJ       0.00034
    X3244     22        1
    X3244     75        1
    X3344     OBJ       -0.00066
    X3344     22        1
    X3344     76        1
    SB43      OBJ       0.001
    SB43      22        1
    X4334     OBJ       5.2000000000000006e-04
    X4334     23        1
    X4334     70        1
    X4334     135       1
    X4434     OBJ       -4.7999999999999996e-04
    X4434     23        1
    X4434     71        1
    X4434     135       1
    X4344     OBJ       5.2000000000000006e-04
    X4344     23        1
    X4344     76        1
    X4444     OBJ       -4.7999999999999996e-04
    X4444     23        1
    X4444     77        1
    SB44      OBJ       0.001
    SB44      23        1
    X5434     OBJ       0.00064
    X5434     24        1
    X5434     71        1
    X5434     136       1
    X5534     OBJ       -3.5999999999999997e-04
    X5534     24        1
    X5534     72        1
    X5534     136       1
    X5444     OBJ       0.00064
    X5444     24        1
    X5444     77        1
    X5544     OBJ       -3.5999999999999997e-04
    X5544     24        1
    X5544     78        1
    SB45      OBJ       0.001
    SB45      24        1
    X6534     OBJ       7.0000000000000010e-04
    X6534     25        1
    X6534     72        1
    X6534     137       1
    X6634     OBJ       -0.0003
    X6634     25        1
    X6634     73        1
    X6634     137       1
    X6544     OBJ       7.0000000000000010e-04
    X6544     25        1
    X6544     78        1
    X6644     OBJ       -0.0003
    X6644     25        1
    X6644     79        1
    SB46      OBJ       0.001
    SB46      25        1
    E13       OBJ       0.12
    E13       28        1
    E13       34        -1
    E13       52        -18.75
    E13       58        -368.75
    E13       80        0.0192
    E13       84        -1
    E13       98        -70
    AP13      OBJ       1.2
    AP13      28        -1
    AM13      OBJ       1.6
    AM13      28        1
    E14       OBJ       0.0809999943
    E14       29        1
    E14       35        -1
    E14       53        -25
    E14       59        -475
    E14       80        0.0192
    E14       84        0.08329999
    E14       88        -1
    E14       99        -90
    AP14      OBJ       1.1
    AP14      29        -1
    AM14      OBJ       1.3
    AM14      29        1
    E15       OBJ       0.0659999943
    E15       30        1
    E15       36        -1
    E15       54        -20
    E15       60        -470
    E15       80        0.0192
    E15       84        0.08329999
    E15       88        0.33329999
    E15       92        -1
    E15       100       -90
    AP15      OBJ       1.05
    AP15      30        -1
    AM15      OBJ       1.15
    AM15      30        1
    E16       OBJ       5.3999996200000004e-02
    E16       31        1
    E16       37        -1
    E16       55        -20
    E16       61        -470
    E16       80        0.0192
    E16       84        0.08329999
    E16       88        0.33329999
    E16       92        0.5
    E16       101       -45
    AP16      OBJ       1.02
    AP16      31        -1
    AM16      OBJ       1.06
    AM16      31        1
    E23       OBJ       0.12
    E23       34        1
    E23       40        -1
    E23       52        -18.75
    E23       64        -368.75
    E23       81        0.0192
    E23       85        -1
    E23       104       -70
    AP23      OBJ       1.2
    AP23      34        -1
    AM23      OBJ       1.6
    AM23      34        1
    E24       OBJ       0.0809999943
    E24       35        1
    E24       41        -1
    E24       53        -25
    E24       65        -475
    E24       81        0.0192
    E24       85        0.08329999
    E24       89        -1
    E24       105       -90
    AP24      OBJ       1.1
    AP24      35        -1
    AM24      OBJ       1.3
    AM24      35        1
    E25       OBJ       0.0659999943
    E25       36        1
    E25       42        -1
    E25       54        -20
    E25       66        -470
    E25       81        0.0192
    E25       85        0.08329999
    E25       89        0.33329999
    E25       93        -1
    E25       106       -90
    AP25      OBJ       1.05
    AP25      36        -1
    AM25      OBJ       1.15
    AM25      36        1
    E26       OBJ       5.3999996200000004e-02
    E26       37        1
    E26       43        -1
    E26       55        -20
    E26       67        -470
    E26       81        0.0192
    E26       85        0.08329999
    E26       89        0.33329999
    E26       93        0.5
    E26       107       -45
    AP26      OBJ       1.02
    AP26      37        -1
    AM26      OBJ       1.06
    AM26      37        1
    E33       OBJ       0.12
    E33       40        1
    E33       46        -1
    E33       52        -18.75
    E33       70        -368.75
    E33       82        0.0192
    E33       86        -1
    E33       110       -70
    AP33      OBJ       1.2
    AP33      40        -1
    AM33      OBJ       1.6
    AM33      40        1
    E34       OBJ       0.0809999943
    E34       41        1
    E34       47        -1
    E34       53        -25
    E34       71        -475
    E34       82        0.0192
    E34       86        0.08329999
    E34       90        -1
    E34       111       -90
    AP34      OBJ       1.1
    AP34      41        -1
    AM34      OBJ       1.3
    AM34      41        1
    E35       OBJ       0.0659999943
    E35       42        1
    E35       48        -1
    E35       54        -20
    E35       72        -470
    E35       82        0.0192
    E35       86        0.08329999
    E35       90        0.33329999
    E35       94        -1
    E35       112       -90
    AP35      OBJ       1.05
    AP35      42        -1
    AM35      OBJ       1.15
    AM35      42        1
    E36       OBJ       5.3999996200000004e-02
    E36       43        1
    E36       49        -1
    E36       55        -20
    E36       73        -470
    E36       82        0.0192
    E36       86        0.08329999
    E36       90        0.33329999
    E36       94        0.5
    E36       113       -45
    AP36      OBJ       1.02
    AP36      43        -1
    AM36      OBJ       1.06
    AM36      43        1
    E43       OBJ       0.12
    E43       46        1
    E43       52        -18.75
    E43       76        -368.75
    E43       83        0.0192
    E43       87        -1
    E43       116       -70
    AP43      OBJ       1.2
    AP43      46        -1
    AM43      OBJ       1.6
    AM43      46        1
    E44       OBJ       0.0809999943
    E44       47        1
    E44       53        -25
    E44       77        -475
    E44       83        0.0192
    E44       87        0.08329999
    E44       91        -1
    E44       117       -90
    AP44      OBJ       1.1
    AP44      47        -1
    AM44      OBJ       1.3
    AM44      47        1
    E45       OBJ       0.0659999943
    E45       48        1
    E45       54        -20
    E45       78        -470
    E45       83        0.0192
    E45       87        0.08329999
    E45       91        0.33329999
    E45       95        -1
    E45       118       -90
    AP45      OBJ       1.05
    AP45      48        -1
    AM45      OBJ       1.15
    AM45      48        1
    E46       OBJ       5.3999996200000004e-02
    E46       49        1
    E46       55        -20
    E46       79        -470
    E46       83        0.0192
    E46       87        0.08329999
    E46       91        0.33329999
    E46       95        0.5
    E46       119       -45
    AP46      OBJ       1.02
    AP46      49        -1
    AM46      OBJ       1.06
    AM46      49        1
    D11       50        1
    D11       56        1
    D21       50        1
    D21       62        1
    D31       50        1
    D31       68        1
    D41       50        1
    D41       74        1
    SP1       OBJ       0.01
    SP1       50        1
    D12       51        1
    D12       57        1
    D22       51        1
    D22       63        1
    D32       51        1
    D32       69        1
    D42       51        1
    D42       75        1
    SP2       OBJ       0.01
    SP2       51        1
    D13       52        1
    D13       58        1
    D23       52        1
    D23       64        1
    D33       52        1
    D33       70        1
    D43       52        1
    D43       76        1
    SP3       OBJ       0.01
    SP3       52        1
    D14       53        1
    D14       59        1
    D24       53        1
    D24       65        1
    D34       53        1
    D34       71        1
    D44       53        1
    D44       77        1
    SP4       OBJ       0.01
    SP4       53        1
    D15       54        1
    D15       60        1
    D25       54        1
    D25       66        1
    D35       54        1
    D35       72        1
    D45       54        1
    D45       78        1
    SP5       OBJ       0.01
    SP5       54        1
    D16       55        1
    D16       61        1
    D26       55        1
    D26       67        1
    D36       55        1
    D36       73        1
    D46       55        1
    D46       79        1
    SP6       OBJ       0.01
    SP6       55        1
    O11       56        -1
    I11       OBJ       0.001
    I11       56        1
    O12       57        -1
    I12       OBJ       0.001
    I12       57        1
    O13       58        -1
    O13       98        1
    I13       OBJ       0.001
    I13       58        1
    O14       OBJ       2.2279998800000002e-04
    O14       59        -1
    O14       99        1
    I14       OBJ       0.001
    I14       59        1
    O15       OBJ       0.000181499939
    O15       60        -1
    O15       100       1
    I15       OBJ       0.001
    I15       60        1
    O16       OBJ       0.000148499994
    O16       61        -1
    O16       101       1
    I16       OBJ       0.001
    I16       61        1
    O21       62        -1
    I21       OBJ       0.001
    I21       62        1
    O22       63        -1
    I22       OBJ       0.001
    I22       63        1
    O23       64        -1
    O23       104       1
    I23       OBJ       0.001
    I23       64        1
    O24       OBJ       2.2279998800000002e-04
    O24       65        -1
    O24       105       1
    I24       OBJ       0.001
    I24       65        1
    O25       OBJ       0.000181499939
    O25       66        -1
    O25       106       1
    I25       OBJ       0.001
    I25       66        1
    O26       OBJ       0.000148499994
    O26       67        -1
    O26       107       1
    I26       OBJ       0.001
    I26       67        1
    O31       68        -1
    I31       OBJ       0.001
    I31       68        1
    O32       69        -1
    I32       OBJ       0.001
    I32       69        1
    O33       70        -1
    O33       110       1
    I33       OBJ       0.001
    I33       70        1
    O34       OBJ       2.2279998800000002e-04
    O34       71        -1
    O34       111       1
    I34       OBJ       0.001
    I34       71        1
    O35       OBJ       0.000181499939
    O35       72        -1
    O35       112       1
    I35       OBJ       0.001
    I35       72        1
    O36       OBJ       0.000148499994
    O36       73        -1
    O36       113       1
    I36       OBJ       0.001
    I36       73        1
    O41       74        -1
    I41       OBJ       0.001
    I41       74        1
    O42       75        -1
    I42       OBJ       0.001
    I42       75        1
    O43       76        -1
    O43       116       1
    I43       OBJ       0.001
    I43       76        1
    O44       OBJ       2.2279998800000002e-04
    O44       77        -1
    O44       117       1
    I44       OBJ       0.001
    I44       77        1
    O45       OBJ       0.000181499939
    O45       78        -1
    O45       118       1
    I45       OBJ       0.001
    I45       78        1
    O46       OBJ       0.000148499994
    O46       79        -1
    O46       119       1
    I46       OBJ       0.001
    I46       79        1
RHS
    RHS1      OBJ       -4.69049999
    RHS1      2         132
    RHS1      3         446
    RHS1      4         2079
    RHS1      5         5346
    RHS1      6         5346
    RHS1      7         8019
    RHS1      8         352
    RHS1      9         1188
    RHS1      10        5544
    RHS1      11        14256
    RHS1      12        14256
    RHS1      13        21384
    RHS1      14        220
    RHS1      15        743
    RHS1      16        3465
    RHS1      17        8910
    RHS1      18        8910
    RHS1      19        13365
    RHS1      20        176
    RHS1      21        594
    RHS1      22        2772
    RHS1      23        7128
    RHS1      24        7128
    RHS1      25        10692
    RHS1      28        9
    RHS1      29        18
    RHS1      30        18
    RHS1      31        27
    RHS1      50        40
    RHS1      51        120
    RHS1      56        210
    RHS1      57        705
    RHS1      62        210
    RHS1      63        705
    RHS1      68        210
    RHS1      69        705
    RHS1      74        210
    RHS1      75        705
    RHS1      80        3
    RHS1      81        3
    RHS1      82        3
    RHS1      83        3
    RHS1      121       237.599991
    RHS1      122       1108.7998
    RHS1      123       2851.19995
    RHS1      124       2851.19995
    RHS1      125       4276.79687
    RHS1      127       148.599991
    RHS1      128       693
    RHS1      129       1782
    RHS1      130       1782
    RHS1      131       2673
    RHS1      133       118.799988
    RHS1      134       554.399902
    RHS1      135       1425.59985
    RHS1      136       1425.59985
    RHS1      137       2138.3999
BOUNDS
 UP BND1      X1111     132.133
 UP BND1      X1121     132.133
 UP BND1      X1131     132.133
 UP BND1      SB11      132.133
 UP BND1      X2111     310.311
 UP BND1      X2211     446.447
 UP BND1      X2121     310.311
 UP BND1      X2221     446.447
 UP BND1      X2131     310.311
 UP BND1      X2231     446.447
 UP BND1      SB12      446.447
 UP BND1      X3211     1043.5435
 UP BND1      X3311     2081.08
 UP BND1      X3221     1043.5435
 UP BND1      X3321     2081.08
 UP BND1      X3231     1043.5435
 UP BND1      X3331     2081.08
 UP BND1      SB13      2081.08
 UP BND1      X4311     5351.347
 UP BND1      X4411     5351.347
 UP BND1      X4321     5351.347
 UP BND1      X4421     5351.347
 UP BND1      X4331     5351.347
 UP BND1      X4431     5351.347
 UP BND1      SB14      5351.347
 UP BND1      X5411     5351.347
 UP BND1      X5511     5351.347
 UP BND1      X5421     5351.347
 UP BND1      X5521     5351.347
 UP BND1      X5431     5351.347
 UP BND1      X5531     5351.347
 UP BND1      SB15      5351.347
 UP BND1      X6511     8027.02
 UP BND1      X6611     8027.02
 UP BND1      X6521     8027.02
 UP BND1      X6621     8027.02
 UP BND1      X6531     8027.02
 UP BND1      X6631     8027.02
 UP BND1      SB16      8027.02
 UP BND1      X1112     70.399994
 UP BND1      X1122     310.311
 UP BND1      X1132     310.311
 UP BND1      X1142     310.311
 UP BND1      SB21      352.353
 UP BND1      X2112     237.838590991
 UP BND1      X2212     237.838590991
 UP BND1      X2122     310.311
 UP BND1      X2222     1043.5435
 UP BND1      X2132     310.311
 UP BND1      X2232     1043.5435
 UP BND1      X2142     310.311
 UP BND1      X2242     1043.5435
 UP BND1      SB22      1189.189
 UP BND1      X3212     1043.5435
 UP BND1      X3312     1109.9095998
 UP BND1      X3222     1043.5435
 UP BND1      X3322     5549.545
 UP BND1      X3232     1043.5435
 UP BND1      X3332     5549.545
 UP BND1      X3242     1043.5435
 UP BND1      X3342     5549.545
 UP BND1      SB23      5549.545
 UP BND1      X4312     2854.05214995
 UP BND1      X4412     2854.05214995
 UP BND1      X4322     14270.257
 UP BND1      X4422     14270.257
 UP BND1      X4332     14270.257
 UP BND1      X4432     14270.257
 UP BND1      X4342     14270.257
 UP BND1      X4442     14270.257
 UP BND1      SB24      14270.257
 UP BND1      X5412     2854.05214995
 UP BND1      X5512     2854.05214995
 UP BND1      X5422     14270.257
 UP BND1      X5522     14270.257
 UP BND1      X5432     14270.257
 UP BND1      X5532     14270.257
 UP BND1      X5442     14270.257
 UP BND1      X5542     14270.257
 UP BND1      SB25      14270.257
 UP BND1      X6512     4281.07466687
 UP BND1      X6612     4281.07466687
 UP BND1      X6522     21405.385
 UP BND1      X6622     21405.385
 UP BND1      X6532     21405.385
 UP BND1      X6632     21405.385
 UP BND1      X6542     21405.385
 UP BND1      X6642     21405.385
 UP BND1      SB26      21405.385
 UP BND1      X1123     44
 UP BND1      X1133     220.221
 UP BND1      X1143     220.221
 UP BND1      SB31      220.221
 UP BND1      X2123     148.749590991
 UP BND1      X2223     148.749590991
 UP BND1      X2133     310.311
 UP BND1      X2233     743.744
 UP BND1      X2143     310.311
 UP BND1      X2243     743.744
 UP BND1      SB32      743.744
 UP BND1      X3223     693.694
 UP BND1      X3323     693.694
 UP BND1      X3233     1043.5435
 UP BND1      X3333     3468.466
 UP BND1      X3243     1043.5435
 UP BND1      X3343     3468.466
 UP BND1      SB33      3468.466
 UP BND1      X4323     1783.783
 UP BND1      X4423     1783.783
 UP BND1      X4333     8918.911
 UP BND1      X4433     8918.911
 UP BND1      X4343     8918.911
 UP BND1      X4443     8918.911
 UP BND1      SB34      8918.911
 UP BND1      X5423     1783.783
 UP BND1      X5523     1783.783
 UP BND1      X5433     8918.911
 UP BND1      X5533     8918.911
 UP BND1      X5443     8918.911
 UP BND1      X5543     8918.911
 UP BND1      SB35      8918.911
 UP BND1      X6523     2675.674
 UP BND1      X6623     2675.674
 UP BND1      X6533     13378.366
 UP BND1      X6633     13378.366
 UP BND1      X6543     13378.366
 UP BND1      X6643     13378.366
 UP BND1      SB36      13378.366
 UP BND1      X1134     35.199997
 UP BND1      X1144     176.177
 UP BND1      SB41      176.177
 UP BND1      X2134     118.919787988
 UP BND1      X2234     118.919787988
 UP BND1      X2144     310.311
 UP BND1      X2244     594.595
 UP BND1      SB42      594.595
 UP BND1      X3234     554.955301902
 UP BND1      X3334     554.955301902
 UP BND1      X3244     1043.5435
 UP BND1      X3344     2774.773
 UP BND1      SB43      2774.773
 UP BND1      X4334     1427.02644985
 UP BND1      X4434     1427.02644985
 UP BND1      X4344     7135.129
 UP BND1      X4444     7135.129
 UP BND1      SB44      7135.129
 UP BND1      X5434     1427.02644985
 UP BND1      X5534     1427.02644985
 UP BND1      X5444     7135.129
 UP BND1      X5544     7135.129
 UP BND1      SB45      7135.129
 UP BND1      X6534     2140.5392999
 UP BND1      X6634     2140.5392999
 UP BND1      X6544     10702.693
 UP BND1      X6644     10702.693
 UP BND1      SB46      10702.693
 UP BND1      E13       156.40725
 UP BND1      E14       156.40725
 UP BND1      E15       156.40725
 UP BND1      E16       156.40725
 UP BND1      E23       156.40725
 UP BND1      E24       156.40725
 UP BND1      E25       156.40725
 UP BND1      E26       156.40725
 UP BND1      E33       156.40725
 UP BND1      E34       156.40725
 UP BND1      E35       156.40725
 UP BND1      E36       156.40725
 UP BND1      E43       156.40725
 UP BND1      E44       156.40725
 UP BND1      E45       156.40725
 UP BND1      E46       156.40725
 UP BND1      D11       40.041
 UP BND1      D21       40.041
 UP BND1      D31       40.041
 UP BND1      D41       40.041
 UP BND1      SP1       40.041
 UP BND1      D12       120.121
 UP BND1      D22       120.121
 UP BND1      D32       120.121
 UP BND1      D42       120.121
 UP BND1      SP2       120.121
 UP BND1      O11       100
 UP BND1      I11       310.311
 UP BND1      O12       337.5
 UP BND1      I12       1043.5435
 UP BND1      O13       10948.4385
 UP BND1      O14       14076.5635
 UP BND1      O15       14076.5635
 UP BND1      O16       7038.28225
 UP BND1      O21       100
 UP BND1      I21       310.311
 UP BND1      O22       337.5
 UP BND1      I22       1043.5435
 UP BND1      O23       10948.4385
 UP BND1      O24       14076.5635
 UP BND1      O25       14076.5635
 UP BND1      O26       7038.28225
 UP BND1      O31       100
 UP BND1      I31       310.311
 UP BND1      O32       337.5
 UP BND1      I32       1043.5435
 UP BND1      O33       10948.4385
 UP BND1      O34       14076.5635
 UP BND1      O35       14076.5635
 UP BND1      O36       7038.28225
 UP BND1      O41       100
 UP BND1      I41       310.311
 UP BND1      O42       337.5
 UP BND1      I42       1043.5435
 UP BND1      O43       10948.4385
 UP BND1      O44       14076.5635
 UP BND1      O45       14076.5635
 UP BND1      O46       7038.28225
ENDATA
